(set-info :smt-lib-version 2.6)
(set-logic QF_S)
(set-info :source |
Generated by: Oliver Markgraf, Hongjian Jiang, Daniel Stan, Anthony W. Lin, Philipp Ruemmer
Generated on: 2025-04-08
Application: Using String Solvers to solve RMC problems encoded as CHC over Strings
Target solver: cvc5, OSTRICH, Z3, Z3alpha, Z3-noodler
Time limit: 60.0
Benchmarks are extracted by running HornStr https://arg-git.informatik.uni-kl.de/pub/string-chc-lib on all benchmarks
provided in the repository and gathering the string queries sent to the string solvers.
|)
(set-info :license "https://creativecommons.org/licenses/by/4.0/")
(set-info :category "industrial")
(set-info :status unknown)
(declare-fun varout () String)
(assert (let ((a!1 (re.* (re.union (re.union (str.to_re "r") (str.to_re "b"))
                           (str.to_re "n")))))
  (str.in_re varout a!1)))
(declare-fun varin () String)
(assert (let ((a!1 (re.* (re.union (re.union (str.to_re "r") (str.to_re "b"))
                           (str.to_re "n")))))
  (str.in_re varin a!1)))
(declare-fun X () String)
(declare-fun isin () Bool)
(declare-fun isout () Bool)
(assert (let ((a!1 (re.++ (re.++ (str.to_re "bn") (re.* (str.to_re "n")))
                  (str.to_re "r"))))
  (or (and (str.in_re X a!1) true (= X varin) isin (not isout)))))
(assert (let ((a!1 (re.union (str.to_re "")
                     (re.++ (str.to_re "r") (re.* (str.to_re "r")))))
      (a!2 (re.++ (str.to_re "r")
                  (re.++ (re.* (str.to_re "r")) (str.to_re "n"))))
      (a!3 (re.++ (str.to_re "r")
                  (re.++ (re.* (str.to_re "r")) (str.to_re "b"))))
      (a!4 (re.++ (re.* (re.union (str.to_re "r") (str.to_re "n")))
                  (str.to_re "b"))))
(let ((a!5 (re.union (str.to_re "b")
                     (re.++ (re.union (str.to_re "r") (str.to_re "n")) a!4)))
      (a!9 (re.++ (re.union (str.to_re "b") (str.to_re "n"))
                  (re.++ (re.* (str.to_re "r")) (re.union (str.to_re "n") a!2))))
      (a!10 (re.++ (re.union (str.to_re "b") (str.to_re "n"))
                   (re.++ (re.* (str.to_re "r")) (re.union (str.to_re "b") a!3))))
      (a!12 (re.++ (re.union (str.to_re "b") (str.to_re "n"))
                   (re.++ (re.* (str.to_re "r")) a!1))))
(let ((a!6 (re.++ (re.* (re.union (str.to_re "r") (str.to_re "n"))) a!5)))
(let ((a!7 (re.++ (re.++ (re.* (str.to_re "r")) (re.union (str.to_re "b") a!3))
                  a!6))
      (a!11 (re.union a!9 (re.++ (re.union (str.to_re "r") a!10) a!6))))
(let ((a!8 (re.union (re.++ (re.* (str.to_re "r"))
                            (re.union (str.to_re "n") a!2))
                     a!7))
      (a!13 (re.union a!12 (re.++ a!11 (re.++ (re.* a!11) a!12)))))
(let ((a!14 (re.union (re.++ (re.* (str.to_re "r")) a!1)
                      (re.++ a!8 (re.++ (re.* a!11) a!13)))))
  (str.in_re varin a!14))))))))
(check-sat)
(exit)
